c FILE: random-n100-d20-d-n100-d20-1.col

p edge 100 990
e 1 3
e 1 4
e 1 12
e 1 13
e 1 20
e 1 26
e 1 34
e 1 38
e 1 43
e 1 45
e 1 65
e 1 68
e 1 79
e 1 81
e 1 93
e 1 94
e 2 4
e 2 7
e 2 8
e 2 13
e 2 17
e 2 26
e 2 31
e 2 33
e 2 41
e 2 47
e 2 49
e 2 51
e 2 56
e 2 57
e 2 61
e 2 63
e 2 64
e 2 71
e 2 76
e 2 80
e 2 89
e 2 93
e 2 94
e 3 5
e 3 17
e 3 23
e 3 25
e 3 27
e 3 30
e 3 32
e 3 35
e 3 36
e 3 39
e 3 44
e 3 45
e 3 48
e 3 53
e 3 57
e 3 59
e 3 70
e 3 77
e 3 78
e 3 79
e 3 86
e 3 87
e 3 97
e 4 14
e 4 16
e 4 18
e 4 19
e 4 21
e 4 52
e 4 57
e 4 65
e 4 67
e 4 68
e 4 72
e 4 77
e 4 79
e 4 80
e 4 87
e 4 88
e 4 94
e 4 100
e 5 9
e 5 12
e 5 14
e 5 23
e 5 24
e 5 26
e 5 27
e 5 29
e 5 33
e 5 35
e 5 39
e 5 46
e 5 49
e 5 54
e 5 57
e 5 59
e 5 62
e 5 64
e 5 68
e 5 78
e 5 91
e 5 96
e 5 98
e 6 22
e 6 23
e 6 25
e 6 35
e 6 39
e 6 40
e 6 42
e 6 44
e 6 47
e 6 50
e 6 64
e 6 71
e 6 72
e 6 84
e 6 92
e 6 96
e 7 9
e 7 17
e 7 22
e 7 23
e 7 24
e 7 27
e 7 32
e 7 36
e 7 41
e 7 42
e 7 45
e 7 59
e 7 65
e 7 67
e 7 83
e 7 88
e 7 94
e 7 95
e 7 100
e 8 15
e 8 19
e 8 28
e 8 32
e 8 36
e 8 45
e 8 46
e 8 48
e 8 50
e 8 52
e 8 60
e 8 61
e 8 62
e 8 63
e 8 77
e 8 82
e 8 89
e 8 99
e 9 12
e 9 13
e 9 14
e 9 29
e 9 35
e 9 36
e 9 37
e 9 39
e 9 42
e 9 44
e 9 46
e 9 49
e 9 51
e 9 56
e 9 64
e 9 65
e 9 73
e 9 85
e 9 88
e 9 94
e 9 95
e 9 97
e 10 12
e 10 13
e 10 14
e 10 15
e 10 17
e 10 26
e 10 36
e 10 39
e 10 40
e 10 47
e 10 49
e 10 63
e 10 87
e 10 88
e 10 93
e 10 96
e 10 99
e 11 15
e 11 17
e 11 22
e 11 24
e 11 26
e 11 34
e 11 38
e 11 44
e 11 45
e 11 48
e 11 50
e 11 57
e 11 59
e 11 61
e 11 66
e 11 72
e 11 80
e 11 81
e 11 83
e 11 85
e 11 99
e 12 26
e 12 27
e 12 29
e 12 38
e 12 46
e 12 48
e 12 52
e 12 53
e 12 74
e 12 77
e 12 79
e 12 84
e 12 86
e 12 94
e 12 99
e 13 19
e 13 24
e 13 28
e 13 40
e 13 43
e 13 48
e 13 52
e 13 56
e 13 58
e 13 59
e 13 65
e 13 66
e 13 68
e 13 73
e 13 74
e 13 81
e 13 91
e 13 97
e 13 98
e 14 15
e 14 18
e 14 19
e 14 31
e 14 38
e 14 39
e 14 47
e 14 50
e 14 51
e 14 54
e 14 61
e 14 69
e 14 70
e 14 80
e 14 81
e 14 85
e 14 89
e 14 90
e 14 92
e 14 94
e 15 16
e 15 20
e 15 22
e 15 24
e 15 25
e 15 35
e 15 40
e 15 41
e 15 44
e 15 63
e 15 72
e 15 75
e 15 82
e 15 87
e 15 88
e 15 90
e 15 91
e 15 95
e 15 98
e 16 18
e 16 25
e 16 26
e 16 28
e 16 36
e 16 38
e 16 40
e 16 46
e 16 61
e 16 64
e 16 67
e 16 73
e 16 77
e 16 80
e 16 84
e 16 86
e 16 90
e 16 100
e 17 21
e 17 25
e 17 34
e 17 36
e 17 38
e 17 43
e 17 48
e 17 50
e 17 53
e 17 55
e 17 59
e 17 73
e 17 80
e 17 81
e 17 97
e 18 23
e 18 25
e 18 29
e 18 31
e 18 34
e 18 35
e 18 47
e 18 54
e 18 57
e 18 63
e 18 70
e 18 82
e 18 90
e 18 93
e 18 94
e 18 96
e 19 20
e 19 21
e 19 22
e 19 24
e 19 29
e 19 37
e 19 48
e 19 53
e 19 70
e 19 80
e 19 81
e 19 85
e 19 86
e 19 93
e 19 100
e 20 23
e 20 28
e 20 32
e 20 33
e 20 34
e 20 38
e 20 42
e 20 52
e 20 59
e 20 70
e 20 74
e 20 79
e 20 85
e 20 93
e 21 25
e 21 43
e 21 51
e 21 58
e 21 64
e 21 65
e 21 83
e 22 33
e 22 34
e 22 48
e 22 55
e 22 62
e 22 65
e 22 66
e 22 69
e 22 70
e 22 71
e 22 76
e 22 85
e 22 90
e 22 91
e 22 92
e 22 98
e 22 99
e 23 24
e 23 29
e 23 33
e 23 48
e 23 51
e 23 52
e 23 57
e 23 65
e 23 70
e 23 82
e 23 93
e 23 98
e 23 100
e 24 29
e 24 31
e 24 34
e 24 35
e 24 38
e 24 39
e 24 43
e 24 48
e 24 54
e 24 55
e 24 62
e 24 63
e 24 69
e 24 80
e 24 84
e 24 87
e 24 90
e 24 96
e 24 98
e 25 33
e 25 44
e 25 46
e 25 50
e 25 56
e 25 60
e 25 69
e 25 70
e 25 73
e 25 75
e 25 78
e 25 83
e 25 91
e 25 99
e 25 100
e 26 27
e 26 34
e 26 35
e 26 38
e 26 39
e 26 48
e 26 52
e 26 56
e 26 61
e 26 63
e 26 64
e 26 70
e 26 81
e 26 88
e 26 95
e 27 34
e 27 36
e 27 37
e 27 40
e 27 48
e 27 55
e 27 56
e 27 58
e 27 59
e 27 73
e 27 75
e 27 76
e 27 80
e 27 91
e 27 92
e 27 95
e 27 97
e 27 99
e 28 36
e 28 38
e 28 40
e 28 42
e 28 54
e 28 77
e 28 78
e 28 81
e 28 88
e 28 92
e 29 31
e 29 32
e 29 34
e 29 38
e 29 44
e 29 45
e 29 49
e 29 50
e 29 51
e 29 64
e 29 67
e 29 70
e 29 73
e 29 78
e 29 83
e 29 87
e 30 31
e 30 37
e 30 51
e 30 52
e 30 58
e 30 67
e 30 71
e 30 79
e 30 81
e 30 91
e 31 43
e 31 44
e 31 48
e 31 50
e 31 55
e 31 61
e 31 64
e 31 67
e 31 68
e 31 70
e 31 77
e 31 78
e 31 82
e 31 88
e 31 91
e 31 93
e 31 94
e 31 98
e 32 36
e 32 37
e 32 44
e 32 51
e 32 52
e 32 58
e 32 65
e 32 69
e 32 75
e 32 76
e 32 85
e 32 91
e 32 94
e 32 98
e 32 100
e 33 46
e 33 51
e 33 55
e 33 56
e 33 59
e 33 62
e 33 66
e 33 74
e 33 75
e 33 79
e 33 82
e 33 91
e 33 94
e 33 97
e 33 98
e 34 39
e 34 52
e 34 56
e 34 61
e 34 84
e 34 87
e 34 92
e 34 97
e 35 37
e 35 44
e 35 53
e 35 73
e 35 75
e 35 78
e 35 80
e 35 81
e 35 85
e 35 86
e 36 37
e 36 40
e 36 50
e 36 54
e 36 56
e 36 62
e 36 66
e 36 73
e 36 84
e 36 89
e 36 93
e 36 95
e 37 40
e 37 45
e 37 47
e 37 50
e 37 54
e 37 56
e 37 58
e 37 60
e 37 67
e 37 72
e 37 100
e 38 39
e 38 41
e 38 44
e 38 49
e 38 53
e 38 65
e 38 72
e 38 74
e 38 77
e 38 80
e 38 82
e 38 86
e 38 87
e 38 91
e 38 92
e 38 94
e 38 95
e 38 100
e 39 40
e 39 46
e 39 51
e 39 53
e 39 54
e 39 64
e 39 65
e 39 66
e 39 72
e 39 73
e 39 87
e 39 100
e 40 47
e 40 52
e 40 59
e 40 62
e 40 66
e 40 84
e 40 85
e 40 86
e 40 90
e 40 92
e 40 99
e 40 100
e 41 43
e 41 49
e 41 58
e 41 66
e 41 82
e 41 85
e 41 90
e 41 96
e 41 97
e 42 54
e 42 56
e 42 61
e 42 66
e 42 72
e 42 81
e 42 88
e 42 91
e 42 92
e 42 100
e 43 44
e 43 49
e 43 53
e 43 60
e 43 71
e 43 78
e 43 79
e 43 100
e 44 45
e 44 50
e 44 55
e 44 58
e 44 59
e 44 61
e 44 63
e 44 65
e 44 71
e 44 88
e 44 96
e 44 100
e 45 47
e 45 65
e 45 76
e 45 78
e 45 84
e 45 91
e 45 93
e 45 95
e 45 99
e 46 49
e 46 55
e 46 62
e 46 65
e 46 70
e 46 75
e 46 86
e 46 94
e 47 52
e 47 55
e 47 59
e 47 62
e 47 63
e 47 64
e 47 68
e 47 69
e 47 78
e 47 80
e 47 83
e 47 84
e 47 85
e 47 86
e 47 88
e 47 94
e 48 49
e 48 52
e 48 58
e 48 63
e 48 64
e 48 67
e 48 69
e 48 70
e 48 71
e 48 80
e 48 84
e 48 87
e 48 97
e 48 100
e 49 51
e 49 52
e 49 53
e 49 59
e 49 62
e 49 63
e 49 67
e 49 76
e 49 84
e 49 90
e 49 91
e 49 100
e 50 56
e 50 59
e 50 61
e 50 62
e 50 63
e 50 72
e 50 87
e 50 88
e 50 97
e 51 58
e 51 65
e 51 68
e 51 93
e 51 94
e 51 98
e 52 60
e 52 63
e 52 69
e 52 72
e 52 73
e 52 79
e 52 84
e 52 86
e 52 93
e 52 95
e 52 99
e 53 55
e 53 56
e 53 61
e 53 64
e 53 65
e 53 76
e 53 79
e 53 82
e 53 88
e 54 55
e 54 56
e 54 68
e 54 69
e 54 71
e 54 72
e 54 77
e 54 79
e 54 80
e 54 82
e 54 89
e 54 90
e 54 91
e 54 92
e 54 94
e 55 56
e 55 57
e 55 60
e 55 66
e 55 69
e 55 70
e 55 74
e 55 77
e 55 80
e 55 89
e 55 94
e 55 99
e 55 100
e 56 79
e 56 83
e 56 99
e 57 64
e 57 66
e 57 70
e 57 72
e 57 73
e 57 76
e 57 81
e 57 87
e 57 89
e 57 92
e 58 60
e 58 63
e 58 68
e 58 74
e 58 77
e 58 99
e 59 62
e 59 63
e 59 65
e 59 67
e 59 78
e 59 79
e 59 81
e 59 84
e 59 85
e 59 88
e 59 92
e 59 99
e 60 62
e 60 64
e 60 68
e 60 69
e 60 70
e 60 75
e 60 81
e 60 85
e 60 96
e 60 97
e 60 100
e 61 62
e 61 65
e 61 84
e 61 92
e 61 97
e 61 98
e 62 85
e 62 99
e 63 66
e 63 72
e 63 74
e 63 81
e 63 88
e 63 94
e 63 95
e 63 96
e 64 66
e 64 82
e 64 83
e 64 87
e 64 92
e 64 94
e 65 68
e 65 74
e 65 85
e 65 92
e 65 96
e 65 100
e 66 68
e 66 70
e 66 81
e 66 82
e 66 87
e 66 90
e 66 96
e 67 69
e 67 77
e 67 84
e 67 85
e 67 90
e 67 92
e 67 96
e 68 69
e 68 72
e 68 75
e 68 83
e 68 85
e 68 92
e 68 98
e 68 100
e 69 71
e 69 73
e 69 79
e 69 80
e 69 82
e 69 84
e 69 89
e 69 95
e 69 99
e 70 71
e 70 78
e 70 81
e 70 83
e 70 86
e 70 89
e 70 94
e 71 95
e 71 98
e 71 100
e 72 73
e 72 76
e 72 78
e 72 81
e 72 90
e 72 94
e 72 96
e 72 100
e 73 84
e 73 92
e 73 95
e 74 75
e 74 77
e 74 78
e 74 83
e 74 88
e 74 89
e 75 76
e 75 79
e 75 83
e 75 85
e 75 100
e 76 77
e 76 79
e 76 92
e 76 96
e 76 99
e 77 80
e 77 85
e 77 86
e 77 91
e 77 95
e 77 97
e 78 87
e 78 93
e 78 94
e 78 96
e 78 98
e 78 99
e 79 82
e 80 81
e 80 84
e 80 88
e 80 89
e 80 91
e 80 92
e 80 96
e 80 97
e 80 98
e 81 82
e 81 83
e 81 97
e 82 89
e 82 92
e 82 95
e 82 96
e 82 98
e 82 100
e 83 86
e 83 87
e 83 90
e 83 94
e 83 100
e 84 87
e 84 94
e 85 86
e 86 94
e 86 98
e 87 89
e 87 94
e 88 94
e 88 100
e 89 91
e 90 98
e 92 95
e 92 97
e 93 97
e 93 100
e 94 97
e 99 100